50, 941
30, 31
32, 30
43, 44
42, 45
37, 41
47, 49
39, 44
32, 29
31, 35
43, 40
45, 46
39, 39
32, 36
30, 27
42, 42
41, 45
50, 48
21, 25
32, 37
53, 49
43, 40
36, 31
47, 44
42, 46
42, 38
42, 45
45, 48
24, 25
45, 49
40, 44
34, 39
40, 43
31, 32
31, 32
26, 27
29, 31
42, 40
42, 38
48, 46
49, 46
30, 30
24, 26
21, 25
22, 25
25, 27
36, 36
43, 47
37, 36
41, 37
23, 27
